Maximize
  0.0767228661123214 Z_634_0_0 + 0.127713632211285 Z_634_0_1
   + 0.0615721656669635 Z_634_0_2 + 0.1647224952784288 Z_634_0_3
   + 0.4692688407310013 Z_634_0_4 + 0.00102603862400003 Z_305_1_0
   + 0.00554954985040359 Z_305_1_1 + 0.8505970492394291 Z_305_1_2
   + 0.00262030677119792 Z_305_1_3 + 0.0402070555149693 Z_305_1_4
   + 0.2989293608259762 Z_305_0_0 + 0.0349798979330569 Z_305_0_1
   + 0.017804029623459 Z_305_0_2 + 0.0748971878988357 Z_305_0_3
   + 0.4733895237186722 Z_305_0_4 + 1.1246519645222035e-04 Z_600_0_0
   + 0.00429838331581619 Z_600_0_1 + 0.8668049268429764 Z_600_0_2
   + 7.0457620577742944e-04 Z_600_0_3 + 0.0280796484389777 Z_600_0_4
   + 7.5775e-05 Z_68_0_0 + 0.00265997765768202 Z_68_0_1
   + 0.8927685023482593 Z_68_0_2 + 0.00100712834858507 Z_68_0_3
   + 0.00348861664218189 Z_68_0_4 + [
   0.0469387755102041 Z_305_1_0 * Z_600_0_0
   + 0.0469387755102041 Z_305_1_0 * Z_68_0_0
   + 0.0469387755102041 Z_305_1_1 * Z_600_0_1
   + 0.0469387755102041 Z_305_1_1 * Z_68_0_1
   + 0.0469387755102041 Z_305_1_2 * Z_600_0_2
   + 0.0469387755102041 Z_305_1_2 * Z_68_0_2
   + 0.0469387755102041 Z_305_1_3 * Z_600_0_3
   + 0.0469387755102041 Z_305_1_3 * Z_68_0_3
   + 0.0469387755102041 Z_305_1_4 * Z_600_0_4
   + 0.0469387755102041 Z_305_1_4 * Z_68_0_4
   + 4.4444444444444436e-04 Z_305_0_0 * Z_600_0_0
   + 4.4444444444444436e-04 Z_305_0_0 * Z_68_0_0
   + 4.4444444444444436e-04 Z_305_0_1 * Z_600_0_1
   + 4.4444444444444436e-04 Z_305_0_1 * Z_68_0_1
   + 4.4444444444444436e-04 Z_305_0_2 * Z_600_0_2
   + 4.4444444444444436e-04 Z_305_0_2 * Z_68_0_2
   + 4.4444444444444436e-04 Z_305_0_3 * Z_600_0_3
   + 4.4444444444444436e-04 Z_305_0_3 * Z_68_0_3
   + 4.4444444444444436e-04 Z_305_0_4 * Z_600_0_4
   + 4.4444444444444436e-04 Z_305_0_4 * Z_68_0_4 + 0.4 Z_600_0_0 * Z_68_0_0
   + 0.4 Z_600_0_1 * Z_68_0_1 + 0.4 Z_600_0_2 * Z_68_0_2
   + 0.4 Z_600_0_3 * Z_68_0_3 + 0.4 Z_600_0_4 * Z_68_0_4 ] / 2 
Subject To
 constraint1_6340: Z_634_0_0 + Z_634_0_1 + Z_634_0_2 + Z_634_0_3
   + Z_634_0_4 <= 1
 constraint1_3051: Z_305_1_0 + Z_305_1_1 + Z_305_1_2 + Z_305_1_3
   + Z_305_1_4 <= 1
 constraint1_3050: Z_305_0_0 + Z_305_0_1 + Z_305_0_2 + Z_305_0_3
   + Z_305_0_4 <= 1
 constraint1_6000: Z_600_0_0 + Z_600_0_1 + Z_600_0_2 + Z_600_0_3
   + Z_600_0_4 <= 1
 constraint1_680: Z_68_0_0 + Z_68_0_1 + Z_68_0_2 + Z_68_0_3 + Z_68_0_4
   <= 1
 constraint2_6340: Z_634_0_0 <= 1
 constraint2_6341: Z_634_0_1 <= 1
 constraint2_6342: Z_634_0_2 <= 1
 constraint2_6343: Z_634_0_3 <= 1
 constraint2_3050: Z_305_1_0 + Z_305_0_0 <= 1
 constraint2_3051: Z_305_1_1 + Z_305_0_1 <= 1
 constraint2_3052: Z_305_1_2 + Z_305_0_2 <= 1
 constraint2_3053: Z_305_1_3 + Z_305_0_3 <= 1
 constraint2_6000: Z_600_0_0 <= 1
 constraint2_6001: Z_600_0_1 <= 1
 constraint2_6002: Z_600_0_2 <= 1
 constraint2_6003: Z_600_0_3 <= 1
 constraint2_680: Z_68_0_0 <= 1
 constraint2_681: Z_68_0_1 <= 1
 constraint2_682: Z_68_0_2 <= 1
 constraint2_683: Z_68_0_3 <= 1
Bounds
Binaries
 Z_634_0_0 Z_634_0_1 Z_634_0_2 Z_634_0_3 Z_634_0_4 Z_305_1_0 Z_305_1_1
 Z_305_1_2 Z_305_1_3 Z_305_1_4 Z_305_0_0 Z_305_0_1 Z_305_0_2 Z_305_0_3
 Z_305_0_4 Z_600_0_0 Z_600_0_1 Z_600_0_2 Z_600_0_3 Z_600_0_4 Z_68_0_0
 Z_68_0_1 Z_68_0_2 Z_68_0_3 Z_68_0_4
End
